c description: Random 3-CNF over 21 variables and 89 clauses
c generator: CNFgen (0.9.2)
c copyright: (C) 2012-2022 Massimo Lauria <massimo.lauria@uniroma1.it>
c url: https://massimolauria.net/cnfgen
c command line: cnfgen --output CNF_4.28/21_bit_89_361.cnf randkcnf 3 21 89
c
p cnf 21 89
-4 -9 -13 0
13 20 -21 0
1 -5 17 0
-3 -4 -10 0
10 -14 -18 0
-7 -12 17 0
15 17 -20 0
16 -19 20 0
4 -20 21 0
7 -8 -9 0
1 4 21 0
4 -8 -11 0
14 -18 -19 0
3 16 -20 0
-3 -5 -7 0
4 10 -13 0
-3 13 -15 0
-1 -6 -8 0
-10 11 -14 0
-6 8 -21 0
-11 -16 -18 0
1 8 21 0
-1 3 -10 0
9 15 -16 0
-4 -5 -11 0
-2 8 -20 0
8 -9 -20 0
2 20 -21 0
-3 4 18 0
-4 13 17 0
-5 14 -16 0
-1 -8 14 0
1 11 15 0
-3 5 21 0
-1 2 19 0
10 18 -20 0
-8 9 16 0
-6 -7 -13 0
-1 -13 -19 0
-10 -17 20 0
-3 -4 -13 0
-2 15 19 0
9 12 19 0
-2 -20 21 0
-12 -13 -18 0
1 7 16 0
7 9 -13 0
-9 -12 15 0
9 10 19 0
-1 10 14 0
-9 -18 -20 0
-4 15 18 0
7 12 -17 0
1 -9 21 0
-1 9 -13 0
11 -13 14 0
-8 13 -18 0
-9 -11 -18 0
5 -6 -11 0
3 -8 -21 0
7 -8 11 0
13 15 -16 0
10 -11 -14 0
5 10 20 0
-8 10 -11 0
11 14 16 0
-9 -10 -18 0
3 -9 -12 0
-2 9 -21 0
-4 7 -20 0
7 15 -21 0
-7 -8 -12 0
15 -17 -19 0
3 15 18 0
-17 -19 21 0
3 8 -18 0
10 -14 16 0
5 -15 19 0
1 -2 3 0
7 8 -20 0
-10 11 -21 0
12 14 21 0
-6 -10 -14 0
1 5 7 0
-4 -8 16 0
1 2 -7 0
-6 10 -15 0
-1 10 -21 0
12 13 17 0
